# Random Circle Problem
param d := 0.05; 
param n := 10; 
param radius := 2.00; 
param v0 := 
1 4.98
2 5.07
3 4.95
4 5.91
5 5.93
6 5.19
7 5.40
8 5.34
9 5.60
10 5.08
;
param cap := 
1 3.59546
2 3.62290
3 4.53636
4 4.63311
5 5.46927
6 5.86463
7 0.22381
8 1.30616
9 2.25657
10 2.53595
;
param x0 := 
1 2.00
2 1.62
3 0.62
4 -0.62
5 -1.62
6 -2.00
7 -1.62
8 -0.62
9 0.62
10 1.62
;
param y0 := 
1 -0.00
2 1.18
3 1.90
4 1.90
5 1.18
6 0.00
7 -1.18
8 -1.90
9 -1.90
10 -1.18
;
